Gurobi Optimizer version 9.1.2 build v9.1.2rc0 (linux64)
Thread count: 36 physical cores, 72 logical processors, using up to 32 threads
Optimize a model with 12 rows, 57 columns and 590 nonzeros
Model fingerprint: 0xf32eec78
Model has 47 quadratic constraints
Coefficient statistics:
  Matrix range     [2e-05, 3e+00]
  QMatrix range    [1e+00, 1e+00]
  QLMatrix range   [1e+00, 1e+00]
  Objective range  [8e-03, 7e-01]
  Bounds range     [1e+00, 1e+00]
  RHS range        [1e+00, 1e+00]
Presolve removed 9 rows and 0 columns

Continuous model is non-convex -- solving as a MIP.

Presolve removed 9 rows and 0 columns
Presolve time: 0.00s
Presolved: 189 rows, 57 columns, 443 nonzeros
Presolved model has 47 bilinear constraint(s)
Variable types: 57 continuous, 0 integer (0 binary)

Root relaxation: objective -1.743721e+00, 44 iterations, 0.00 seconds

    Nodes    |    Current Node    |     Objective Bounds      |     Work
 Expl Unexpl |  Obj  Depth IntInf | Incumbent    BestBd   Gap | It/Node Time

     0     0   -1.74372    0   38          -   -1.74372      -     -    0s
H    0     0                       0.6147548   -1.74372   384%     -    0s
     0     0   -1.64739    0    1    0.61475   -1.64739   368%     -    0s
H    0     0                      -1.6450460   -1.64739  0.14%     -    0s
     0     0     cutoff    0        -1.64505   -1.64505  0.00%     -    0s

Cutting planes:
  RLT: 25
  BQP: 3

Explored 1 nodes (76 simplex iterations) in 0.01 seconds
Thread count was 32 (of 72 available processors)

Solution count 2: -1.64505 0.614755 
No other solutions better than -1.64505

Optimal solution found (tolerance 1.00e-04)
Best objective -1.645045978473e+00, best bound -1.645045978473e+00, gap 0.0000%

User-callback calls 78, time in user-callback 0.00 sec
Gurobi Optimizer version 9.1.2 build v9.1.2rc0 (linux64)
Thread count: 36 physical cores, 72 logical processors, using up to 32 threads
Optimize a model with 60 rows, 312 columns and 16100 nonzeros
Model fingerprint: 0x8162181d
Model has 262 quadratic constraints
Coefficient statistics:
  Matrix range     [4e-07, 7e+00]
  QMatrix range    [1e+00, 1e+00]
  QLMatrix range   [1e+00, 1e+00]
  Objective range  [5e-03, 1e+00]
  Bounds range     [1e+00, 1e+00]
  RHS range        [1e+00, 1e+00]
Presolve removed 15 rows and 0 columns

Continuous model is non-convex -- solving as a MIP.

Presolve removed 15 rows and 0 columns
Presolve time: 0.01s
Presolved: 1081 rows, 312 columns, 13447 nonzeros
Presolved model has 262 bilinear constraint(s)
Variable types: 312 continuous, 0 integer (0 binary)

Root relaxation: objective -2.816223e+01, 311 iterations, 0.02 seconds

    Nodes    |    Current Node    |     Objective Bounds      |     Work
 Expl Unexpl |  Obj  Depth IntInf | Incumbent    BestBd   Gap | It/Node Time

     0     0  -28.16223    0  147          -  -28.16223      -     -    0s
     0     0  -26.63232    0   72          -  -26.63232      -     -    0s
     0     0  -26.58503    0   74          -  -26.58503      -     -    0s
     0     0  -26.53785    0   80          -  -26.53785      -     -    0s
     0     0  -26.53701    0   75          -  -26.53701      -     -    0s
     0     0  -26.53184    0   80          -  -26.53184      -     -    0s
     0     0  -26.53183    0   80          -  -26.53183      -     -    0s
     0     0  -26.52924    0   80          -  -26.52924      -     -    0s
     0     0  -26.52851    0   80          -  -26.52851      -     -    0s
     0     0  -26.52797    0   83          -  -26.52797      -     -    0s
     0     0  -26.52714    0   88          -  -26.52714      -     -    0s
     0     0  -26.52680    0   83          -  -26.52680      -     -    0s
     0     0  -26.52679    0   88          -  -26.52679      -     -    0s
     0     0  -26.52634    0   82          -  -26.52634      -     -    0s
     0     0  -26.52546    0   75          -  -26.52546      -     -    0s
     0     0  -26.52545    0   75          -  -26.52545      -     -    0s
H    0     0                     -23.7507747  -26.52545  11.7%     -    0s
     0     2  -26.52545    0   75  -23.75077  -26.52545  11.7%     -    0s
* 1333  1249              51     -23.7509475  -25.54715  7.56%  58.2    1s
* 1334  1249              51     -23.7510445  -25.54715  7.56%  58.2    1s
* 1611  1447              84     -23.8795750  -25.54715  6.98%  53.3    1s
* 2023  1887              55     -24.8396154  -25.54715  2.85%  49.1    2s
* 3105  1736              43     -24.8407984  -25.47160  2.54%  46.8    2s
* 3609  1780              43     -24.8415384  -25.39018  2.21%  46.1    2s
* 3611  1780              44     -24.8415481  -25.39018  2.21%  46.1    2s
* 3788  1792              44     -24.8415486  -25.37576  2.15%  45.6    2s
* 4042  1814              41     -24.8420241  -25.37576  2.15%  44.9    3s
* 4098  1814              51     -24.8446274  -25.37576  2.14%  44.7    3s
* 4298  1817              53     -24.8451768  -25.37576  2.14%  44.2    3s
* 4707  1871              54     -24.8612739  -25.32808  1.88%  42.7    3s
* 4970  1830              61     -24.8613045  -25.32808  1.88%  41.8    3s
* 7104  1064              55     -24.8662850  -25.32808  1.86%  44.4    4s
* 7530  1097              78     -24.9161028  -25.32808  1.65%  44.2    4s
* 7766   960              62     -24.9188686  -25.32808  1.64%  43.9    4s
  7803   948  -25.32808   16   30  -24.91887  -25.32808  1.64%  43.9    5s
* 7808   900              62     -24.9410355  -25.32808  1.55%  43.9    5s
* 9975  1314              61     -24.9414771  -25.32808  1.55%  43.4    5s
* 9979  1314              63     -24.9415098  -25.32808  1.55%  43.4    5s
*10081  1314              78     -24.9704697  -25.32808  1.43%  43.2    5s
*10083  1314              79     -24.9704713  -25.32808  1.43%  43.2    5s
*10274  1330              68     -24.9781808  -25.32808  1.40%  43.0    5s
*12194  1563              58     -24.9782280  -25.32808  1.40%  41.1    6s
*12195  1563              58     -24.9782407  -25.32808  1.40%  41.1    6s
*12441  1656              59     -24.9783127  -25.32808  1.40%  40.8    6s
*12443  1656              60     -24.9783363  -25.32808  1.40%  40.8    6s
*12446  1656              61     -24.9783365  -25.32808  1.40%  40.8    6s
*12903  1720              64     -24.9784013  -25.32808  1.40%  40.2    6s
*12905  1720              65     -24.9785227  -25.32808  1.40%  40.2    6s
*13343  1766              63     -24.9789416  -25.32808  1.40%  39.7    6s
*13756  1750              66     -24.9799547  -25.32808  1.39%  39.3    6s
*13757  1750              66     -24.9799638  -25.32808  1.39%  39.3    6s
*13846  1714              63     -24.9826631  -25.32808  1.38%  39.2    6s
*17374  1701              60     -24.9828237  -25.25289  1.08%  36.1    7s
 30255  1616  -24.98884   32   20  -24.98282  -24.99185  0.04%  27.4   10s
*40238  1366              64     -24.9828436  -24.98574  0.01%  23.0   11s

Explored 43256 nodes (948712 simplex iterations) in 11.79 seconds
Thread count was 32 (of 72 available processors)

Solution count 10: -24.9828 -24.9828 -24.9827 ... -24.9783

Optimal solution found (tolerance 1.00e-04)
Best objective -2.498284363344e+01, best bound -2.498457066379e+01, gap 0.0069%

User-callback calls 87687, time in user-callback 0.02 sec



objective value: -24.982843633442606
objective bound: -24.984570663785462
x_opt: [0.9999828798928565, 0.8986798807994767, 0.0, 0.3253242181754827, 0.0, 0.0, 1.0, 0.0, 0.0, 0.0, 1.0, 0.0, 1.0, 1.0, 0.5028022046076854, 1.0, 0.0, 1.0, 0.0, 0.0, 0.0, 0.1236558586003348, 0.0, 0.5371274450144361, 0.0, 0.6010290864096686, 0.0, 1.0, 0.0, 0.0, 1.0, 1.0, 0.0, 0.6480262604670903, 1.0, 0.9442668916727502, 0.0, 1.0, 0.0, 1.0, 1.0, 0.0, 0.875093527841862, 0.019624194817716666, 0.0, 0.05173000082969795, 0.37474308503266074, 0.4872592162178672, 0.029366142432917214, 0.0]
GUROBI solution time: 11.788257122039795




